SDVRP instances/custom_instances/p02_15_split0.vrp
NAME:p02_15_split
BEST_KNOWN: 0
COMMENT: 0
DIMENSION: 362
CAPACITY: 140
EDGE_WEIGHT_FORMAT: FUNCTION
EDGE_WEIGHT_TYPE: EXACT_2D
NODE_COORD_SECTION
1 0.00000 0.00000
2 -9 10
3 -9 10
4 -9 10
5 -9 10
6 -9 10
7 -9 10
8 -42 -27
9 -42 -27
10 -42 -27
11 -42 -27
12 -42 -27
13 -42 -27
14 -42 -27
15 -38 -6
16 -38 -6
17 -38 -6
18 -38 -6
19 -38 -6
20 -38 -6
21 -38 -6
22 12 19
23 12 19
24 12 19
25 12 19
26 12 19
27 12 19
28 33 50
29 33 50
30 33 50
31 33 50
32 46 18
33 46 18
34 46 18
35 46 18
36 46 18
37 46 18
38 27 -28
39 27 -28
40 27 -28
41 -7 -13
42 -7 -13
43 -7 -13
44 -7 -13
45 -21 -21
46 -21 -21
47 -21 -21
48 -21 -21
49 -21 -21
50 -21 -21
51 -21 -21
52 -21 -21
53 -45 -50
54 -45 -50
55 -45 -50
56 19 50
57 19 50
58 -27 14
59 -27 14
60 -27 14
61 -27 14
62 -27 14
63 -27 14
64 -27 14
65 -27 14
66 -50 38
67 -50 38
68 -50 38
69 -50 38
70 -50 38
71 -28 3
72 -28 3
73 -28 3
74 -28 3
75 -22 4
76 -22 4
77 -22 4
78 25 -49
79 25 -49
80 -34 34
81 -34 34
82 -34 34
83 -3 -29
84 -3 -29
85 -43 -16
86 -43 -16
87 -43 -16
88 13 -3
89 13 -3
90 13 -3
91 13 -3
92 13 -3
93 -22 -14
94 -22 -14
95 -22 -14
96 -22 -14
97 -22 -14
98 -22 -14
99 27 -24
100 27 -24
101 27 -24
102 27 -24
103 -33 6
104 -33 6
105 -33 6
106 37 45
107 37 45
108 37 45
109 37 45
110 37 45
111 37 45
112 10 38
113 10 38
114 10 38
115 10 38
116 10 38
117 -13 9
118 -13 9
119 -13 9
120 -13 9
121 -13 9
122 13 25
123 13 25
124 13 25
125 13 25
126 49 -26
127 49 -26
128 49 -26
129 49 -26
130 49 -26
131 49 -26
132 -16 43
133 -16 43
134 -16 43
135 -16 43
136 -16 43
137 -16 43
138 -16 43
139 -21 -37
140 -21 -37
141 -21 -37
142 -21 -37
143 -21 -37
144 -21 -37
145 -6 21
146 -6 21
147 -6 21
148 -6 21
149 -6 21
150 33 -27
151 33 -27
152 33 -27
153 29 39
154 29 39
155 29 39
156 29 39
157 29 39
158 -29 -28
159 -29 -28
160 -29 -28
161 -29 -28
162 -29 -28
163 -41 5
164 -41 5
165 -41 5
166 30 3
167 30 3
168 30 3
169 -45 -38
170 -45 -38
171 -45 -38
172 -45 -38
173 -45 -38
174 -45 -38
175 -45 -38
176 -26 -43
177 -26 -16
178 -26 -16
179 -26 -16
180 -26 -16
181 -26 -16
182 -1 39
183 -1 39
184 -1 39
185 -1 39
186 -1 39
187 -1 39
188 -1 39
189 -1 39
190 -30 -11
191 -30 -11
192 -30 -11
193 -30 -11
194 -30 -11
195 -30 -11
196 -30 -11
197 13 41
198 13 41
199 13 41
200 -16 -1
201 -16 -1
202 -16 -1
203 -47 -32
204 -47 -32
205 -47 -32
206 -47 -32
207 -47 -32
208 41 -32
209 41 -32
210 41 -32
211 41 -32
212 41 -32
213 41 -32
214 -48 -19
215 -48 -19
216 -48 -19
217 36 -48
218 36 -48
219 36 -48
220 36 26
221 36 26
222 36 26
223 36 26
224 36 26
225 -20 -1
226 -20 -1
227 -20 -1
228 -20 -1
229 -20 -1
230 30 -16
231 30 -16
232 30 -16
233 30 -16
234 -46 -44
235 -46 -44
236 49 5
237 49 5
238 49 5
239 26 -28
240 26 -28
241 26 -28
242 26 -28
243 26 -28
244 26 -28
245 26 -28
246 -17 -16
247 -17 -16
248 -17 -16
249 -17 -16
250 25 -7
251 25 -7
252 25 -7
253 34 50
254 45 -21
255 45 -21
256 45 -21
257 45 -21
258 45 -21
259 45 -21
260 45 -21
261 11 19
262 11 19
263 11 19
264 11 19
265 11 19
266 11 19
267 11 19
268 10 28
269 10 28
270 10 28
271 10 28
272 10 28
273 -36 2
274 -36 2
275 -36 2
276 23 36
277 23 36
278 23 36
279 23 36
280 41 6
281 41 6
282 41 6
283 41 6
284 41 6
285 41 6
286 41 6
287 13 -23
288 13 -23
289 13 -23
290 13 -23
291 31 -21
292 31 -21
293 31 -21
294 31 -21
295 3 -3
296 3 -3
297 3 -3
298 3 -3
299 3 -3
300 3 -3
301 3 -3
302 3 -3
303 3 -3
304 9 -22
305 9 -22
306 9 -22
307 9 -22
308 9 -22
309 9 -22
310 9 -22
311 9 -22
312 42 34
313 42 34
314 42 34
315 44 -3
316 44 -3
317 44 -3
318 44 -3
319 44 -3
320 44 -3
321 44 -3
322 44 -3
323 -19 31
324 -19 31
325 -19 31
326 -19 31
327 -19 31
328 -19 31
329 -19 31
330 -32 -24
331 -32 -24
332 -32 -24
333 -32 -24
334 -32 -24
335 -32 -24
336 19 -5
337 -8 -6
338 -8 -6
339 -8 -6
340 -44 31
341 -44 31
342 -44 31
343 -44 31
344 -44 31
345 -44 31
346 -44 31
347 -44 31
348 -44 31
349 -20 12
350 -20 12
351 -20 12
352 -20 12
353 -20 12
354 -20 12
355 -20 12
356 -3 11
357 -3 11
358 -3 11
359 -3 11
360 -3 11
361 -3 11
362 -3 11
DEMAND_SECTION
1 0
2 28
3 28
4 1
5 1
6 1
7 1
8 28
9 28
10 7
11 1
12 1
13 1
14 1
15 14
16 1
17 1
18 1
19 1
20 1
21 1
22 28
23 14
24 7
25 1
26 1
27 1
28 14
29 1
30 1
31 1
32 28
33 28
34 7
35 1
36 1
37 1
38 28
39 28
40 14
41 28
42 7
43 1
44 1
45 28
46 28
47 1
48 1
49 1
50 1
51 1
52 1
53 28
54 28
55 14
56 28
57 1
58 14
59 7
60 1
61 1
62 1
63 1
64 1
65 1
66 28
67 14
68 1
69 1
70 1
71 28
72 28
73 7
74 1
75 28
76 14
77 7
78 28
79 14
80 28
81 28
82 14
83 14
84 7
85 14
86 7
87 1
88 28
89 14
90 1
91 1
92 1
93 28
94 28
95 7
96 1
97 1
98 1
99 14
100 1
101 1
102 1
103 28
104 1
105 1
106 28
107 14
108 7
109 1
110 1
111 1
112 28
113 1
114 1
115 1
116 1
117 28
118 28
119 1
120 1
121 1
122 28
123 28
124 7
125 1
126 28
127 14
128 1
129 1
130 1
131 1
132 28
133 28
134 1
135 1
136 1
137 1
138 1
139 28
140 14
141 7
142 1
143 1
144 1
145 28
146 14
147 1
148 1
149 1
150 14
151 7
152 1
153 28
154 14
155 1
156 1
157 1
158 14
159 1
160 1
161 1
162 1
163 28
164 28
165 1
166 28
167 28
168 7
169 28
170 14
171 7
172 1
173 1
174 1
175 1
176 28
177 28
178 7
179 1
180 1
181 1
182 28
183 28
184 1
185 1
186 1
187 1
188 1
189 1
190 14
191 1
192 1
193 1
194 1
195 1
196 1
197 28
198 28
199 7
200 14
201 7
202 1
203 14
204 7
205 1
206 1
207 1
208 28
209 28
210 1
211 1
212 1
213 1
214 28
215 14
216 7
217 28
218 14
219 1
220 14
221 7
222 1
223 1
224 1
225 28
226 28
227 1
228 1
229 1
230 14
231 1
232 1
233 1
234 28
235 28
236 28
237 28
238 1
239 14
240 1
241 1
242 1
243 1
244 1
245 1
246 28
247 28
248 1
249 1
250 28
251 1
252 1
253 28
254 14
255 7
256 1
257 1
258 1
259 1
260 1
261 28
262 7
263 1
264 1
265 1
266 1
267 1
268 28
269 14
270 7
271 1
272 1
273 28
274 28
275 14
276 28
277 14
278 1
279 1
280 14
281 7
282 1
283 1
284 1
285 1
286 1
287 14
288 7
289 1
290 1
291 28
292 1
293 1
294 1
295 28
296 28
297 7
298 1
299 1
300 1
301 1
302 1
303 1
304 28
305 14
306 7
307 1
308 1
309 1
310 1
311 1
312 28
313 28
314 1
315 28
316 14
317 1
318 1
319 1
320 1
321 1
322 1
323 28
324 28
325 7
326 1
327 1
328 1
329 1
330 28
331 7
332 1
333 1
334 1
335 1
336 28
337 28
338 7
339 1
340 28
341 28
342 7
343 1
344 1
345 1
346 1
347 1
348 1
349 28
350 28
351 1
352 1
353 1
354 1
355 1
356 14
357 7
358 1
359 1
360 1
361 1
362 1
DEPOT_SECTION
1
-1
EOF