SDVRP instances/custom_instances/p02_15_split0.sol
361 -3 5 2 6 1 4 117 119 116 -11 13 7 8 12 9 10 206 203 202 205 204 169 171 168 172 -21 261 264 262 266 260 265 263 148 144 355 356 361 358 360 359 357 -23 25 24 26 22 124 121 122 123 267 271 268 269 270 -30 28 29 27 252 108 107 105 110 106 109 152 156 155 154 -32 35 31 36 34 33 166 165 167 -42 43 40 41 82 83 310 305 303 307 309 304 308 306 -50 49 51 46 45 44 48 47 248 245 246 247 -54 52 53 233 234 174 170 173 -55 56 197 196 198 115 112 113 111 114 -60 62 59 58 57 61 64 342 340 343 345 347 346 344 339 341 66 68 65 67 69 -63 79 81 80 328 325 326 323 324 327 322 -73 72 71 70 227 228 225 224 226 -91 90 89 87 88 335 249 251 250 -98 99 101 100 149 151 150 216 218 217 78 77 288 289 286 -102 104 103 163 162 164 273 274 -118 120 352 350 349 353 354 351 348 75 74 76 200 201 199 -139 142 141 138 140 143 175 157 158 160 159 161 330 331 333 334 329 332 -145 146 147 136 133 137 131 134 135 132 188 181 187 184 186 185 183 182 -177 176 178 179 180 96 95 92 97 94 93 336 337 338 -191 193 189 192 194 195 190 85 86 84 213 215 214 16 14 20 15 17 19 18 272 -221 222 223 220 219 312 311 313 153 276 278 275 277 -230 229 290 38 39 37 241 239 243 238 240 242 244 287 -232 231 256 254 255 259 253 257 258 125 130 126 129 128 127 211 207 210 212 208 209 292 291 293 -280 279 283 285 284 281 282 235 237 236 316 320 315 314 318 321 317 319 -301 299 300 296 298 295 297 294 302 0 





OBJ=
2310.952
BEST_KNOWN=
0.000